1423.28 0
0 95 151 3 44 106 32 97 9 109 39 130 17 0
0 126 81 12 50 10 80 131 31 162 75 189 161 187 76 0
0 35 69 108 85 164 165 38 119 77 129 71 100 168 0
0 34 46 65 167 179 99 27 111 4 54 0
0 159 182 49 63 107 74 144 24 145 135 146 18 118 72 0
0 1 191 136 199 42 190 43 184 197 158 198 53 33 0
0 139 120 171 47 155 36 122 173 21 172 2 157 0
0 40 117 183 67 16 188 96 61 6 0
0 60 7 150 52 11 170 134 84 133 177 19 128 70 176 0
0 105 192 160 115 90 41 143 68 113 91 141 186 86 0
0 195 104 23 116 62 185 89 137 142 114 156 22 93 112 0
0 152 174 82 121 140 94 64 28 101 66 196 194 193 0
0 30 48 59 88 37 138 166 20 124 79 45 0
0 26 149 51 132 180 14 78 178 102 8 175 0
0 169 57 110 56 25 163 148 92 73 147 181 55 0
0 127 87 58 153 83 13 123 15 154 103 5 29 98 125 0
